param set_len = 20;
param target = 11048861;
param values := [0] 1182580 [1] 729010 [2] 582720 [3] 206172 [4] 95557 [5] 1261750 [6] 1518630 [7] 979042 [8] 1599788 [9] 1555703 [10] 1390087 [11] 311871 [12] 1885727 [13] 1958246 [14] 512946 [15] 2042225 [16] 172822 [17] 1723041 [18] 415540 [19] 1714076 ;
